
Gurobi 11.0.2 (win64) logging started Sun Aug 18 13:03:20 2024

Set parameter LogFile to value "D:\Documenti\Scuola\Laurea magistrale unibs\laurea-unibs-mkfsp\output\2024-08-18T10_03_15.889499\logs\instance07_bucket2.log"
Set parameter TimeLimit to value 350
Set parameter MIPGap to value 0
Gurobi Optimizer version 11.0.2 build v11.0.2rc0 (win64 - Windows 10.0 (19045.2))

CPU model: Intel(R) Core(TM) i5-4670 CPU @ 3.40GHz, instruction set [SSE2|AVX|AVX2]
Thread count: 4 physical cores, 4 logical processors, using up to 4 threads

Optimize a model with 637 rows, 1597 columns and 43788 nonzeros
Model fingerprint: 0xa9821707
Variable types: 0 continuous, 1597 integer (1561 binary)
Coefficient statistics:
  Matrix range     [1e+00, 8e+03]
  Objective range  [6e+02, 8e+03]
  Bounds range     [1e+00, 1e+00]
  RHS range        [1e+00, 2e+05]
Found heuristic solution: objective 157563.00000
Presolve time: 0.08s
Presolved: 637 rows, 1597 columns, 43788 nonzeros
Variable types: 0 continuous, 1597 integer (1561 binary)
Found heuristic solution: objective 168882.00000

Root relaxation: objective 2.154820e+05, 432 iterations, 0.01 seconds (0.01 work units)

    Nodes    |    Current Node    |     Objective Bounds      |     Work
 Expl Unexpl |  Obj  Depth IntInf | Incumbent    BestBd   Gap | It/Node Time

     0     0 215482.000    0    9 168882.000 215482.000  27.6%     -    0s
H    0     0                    212392.00000 215482.000  1.45%     -    0s
H    0     0                    213133.00000 215482.000  1.10%     -    0s
     0     0 215482.000    0   43 213133.000 215482.000  1.10%     -    0s
     0     0 215482.000    0   43 213133.000 215482.000  1.10%     -    0s
H    0     0                    213196.00000 215482.000  1.07%     -    0s
     0     0 215482.000    0    4 213196.000 215482.000  1.07%     -    0s
H    0     0                    214052.00000 215482.000  0.67%     -    0s
     0     0 215482.000    0    4 214052.000 215482.000  0.67%     -    0s
H    0     0                    214063.00000 215482.000  0.66%     -    0s
     0     0 215482.000    0    2 214063.000 215482.000  0.66%     -    0s
H    0     0                    215482.00000 215482.000  0.00%     -    0s

Cutting planes:
  Gomory: 4
  Cover: 27
  Clique: 76
  MIR: 26
  StrongCG: 3

Explored 1 nodes (5158 simplex iterations) in 0.78 seconds (0.52 work units)
Thread count was 4 (of 4 available processors)

Solution count 8: 215482 214063 214052 ... 157563

Optimal solution found (tolerance 0.00e+00)
Best objective 2.154820000000e+05, best bound 2.154820000000e+05, gap 0.0000%
